NAME: random-82-32324
TYPE: TSP
COMMENT: size=82 seed=32324
DIMENSION: 166
EDGE_WEIGHT_TYPE: EUC_2D
NODE_COORD_SECTION
+0 468 279
-0 468 279
+1 333 309
-1 816 351
+2 873 905
-2 348 977
+3 988 909
-3 772 38
+4 930 740
-4 889 768
+5 554 3
-5 130 343
+6 343 588
-6 192 433
+7 822 285
-7 453 485
+8 387 10
-8 369 69
+9 693 126
-9 598 581
+10 13 655
-10 59 767
+11 967 577
-11 720 225
+12 551 86
-12 252 598
+13 197 614
-13 468 606
+14 454 799
-14 37 393
+15 354 508
-15 740 912
+16 400 723
-16 54 188
+17 27 491
-17 504 45
+18 208 126
-18 679 972
+19 260 818
-19 795 44
+20 834 812
-20 532 633
+21 453 377
-21 361 40
+22 142 418
-22 473 905
+23 758 391
-23 419 169
+24 944 788
-24 777 387
+25 875 400
-25 103 964
+26 92 726
-26 756 632
+27 331 432
-27 309 855
+28 258 276
-28 281 506
+29 900 504
-29 638 383
+30 413 343
-30 344 615
+31 384 864
-31 160 882
+32 935 880
-32 71 441
+33 795 167
-33 771 800
+34 189 792
-34 344 120
+35 282 590
-35 640 632
+36 336 796
-36 512 423
+37 137 814
-37 575 50
+38 549 324
-38 703 272
+39 171 243
-39 49 998
+40 735 144
-40 564 337
+41 813 641
-41 738 726
+42 562 502
-42 944 987
+43 199 538
-43 297 737
+44 387 67
-44 694 929
+45 934 168
-45 372 231
+46 267 561
-46 55 527
+47 857 658
-47 905 594
+48 811 838
-48 643 189
+49 64 120
-49 596 169
+50 366 974
-50 556 354
+51 356 963
-51 47 376
+52 835 827
-52 445 130
+53 19 604
-53 82 960
+54 138 962
-54 739 301
+55 460 289
-55 908 195
+56 688 48
-56 622 482
+57 994 561
-57 292 544
+58 902 963
-58 241 576
+59 866 61
-59 897 311
+60 349 609
-60 556 66
+61 471 109
-61 159 637
+62 463 710
-62 163 596
+63 733 58
-63 825 282
+64 952 138
-64 846 244
+65 751 911
-65 684 946
+66 331 802
-66 432 646
+67 648 84
-67 989 784
+68 953 750
-68 405 321
+69 135 57
-69 415 960
+70 181 333
-70 96 274
+71 760 532
-71 82 817
+72 203 577
-72 291 390
+73 874 628
-73 978 273
+74 928 476
-74 261 594
+75 437 890
-75 393 906
+76 472 464
-76 841 652
+77 397 940
-77 317 210
+78 580 742
-78 240 403
+79 587 142
-79 983 101
+80 20 435
-80 203 26
+81 302 540
-81 624 358
+82 382 390
-82 34 203
PRECEDENCE_SECTION
+0 -0
+1 -1
+2 -2
+3 -3
+4 -4
+5 -5
+6 -6
+7 -7
+8 -8
+9 -9
+10 -10
+11 -11
+12 -12
+13 -13
+14 -14
+15 -15
+16 -16
+17 -17
+18 -18
+19 -19
+20 -20
+21 -21
+22 -22
+23 -23
+24 -24
+25 -25
+26 -26
+27 -27
+28 -28
+29 -29
+30 -30
+31 -31
+32 -32
+33 -33
+34 -34
+35 -35
+36 -36
+37 -37
+38 -38
+39 -39
+40 -40
+41 -41
+42 -42
+43 -43
+44 -44
+45 -45
+46 -46
+47 -47
+48 -48
+49 -49
+50 -50
+51 -51
+52 -52
+53 -53
+54 -54
+55 -55
+56 -56
+57 -57
+58 -58
+59 -59
+60 -60
+61 -61
+62 -62
+63 -63
+64 -64
+65 -65
+66 -66
+67 -67
+68 -68
+69 -69
+70 -70
+71 -71
+72 -72
+73 -73
+74 -74
+75 -75
+76 -76
+77 -77
+78 -78
+79 -79
+80 -80
+81 -81
+82 -82
EOF
